5 4
3  3  1  6  3  7  2  7  3  2  12  4  10  3  10  3  4  9  2  10  1  10
3  3  1  18  3  16  2  17  3  3  6  2  7  4  8  3  2  15  1  16  3  14
3  3  3  9  1  11  4  10  3  4  3  3  4  2  5  3  1  12  2  9  3  11
2  3  4  6  2  8  3  7  3  2  15  3  13  1  14
2  3  3  3  4  5  2  4  3  1  9  2  7  4  8